
******************************************************************************
This program contains Ipopt, a library for large-scale nonlinear optimization.
 Ipopt is released as open source code under the Eclipse Public License (EPL).
         For more information visit http://projects.coin-or.org/Ipopt

This version of Ipopt was compiled from source code available at
    https://github.com/IDAES/Ipopt as part of the Institute for the Design of
    Advanced Energy Systems Process Systems Engineering Framework (IDAES PSE
    Framework) Copyright (c) 2018-2019. See https://github.com/IDAES/idaes-pse.

This version of Ipopt was compiled using HSL, a collection of Fortran codes
    for large-scale scientific computation.  All technical papers, sales and
    publicity material resulting from use of the HSL codes within IPOPT must
    contain the following acknowledgement:
        HSL, a collection of Fortran codes for large-scale scientific
        computation. See http://www.hsl.rl.ac.uk.
******************************************************************************

This is Ipopt version 3.13.2, running with linear solver ma27.

Number of nonzeros in equality constraint Jacobian...:     1210
Number of nonzeros in inequality constraint Jacobian.:        0
Number of nonzeros in Lagrangian Hessian.............:     1376

Total number of variables............................:      480
                     variables with only lower bounds:      128
                variables with lower and upper bounds:      288
                     variables with only upper bounds:        0
Total number of equality constraints.................:      477
Total number of inequality constraints...............:        0
        inequality constraints with only lower bounds:        0
   inequality constraints with lower and upper bounds:        0
        inequality constraints with only upper bounds:        0

iter    objective    inf_pr   inf_du lg(mu)  ||d||  lg(rg) alpha_du alpha_pr  ls
   0  0.0000000e+00 2.15e-01 3.02e-14  -1.0 0.00e+00    -  0.00e+00 0.00e+00   0
   1  9.1160768e+00 6.11e-02 1.09e+06  -1.0 2.65e+05    -  4.96e-01 9.90e-01h  1
   2  1.5991364e+01 1.35e-01 1.02e+06  -1.0 4.63e+05    -  6.11e-01 9.90e-01h  1
   3  1.7343600e+01 1.27e-01 2.15e+07  -1.0 1.11e+06  -4.0 3.49e-01 6.55e-02h  4
   4  1.9047190e+01 1.22e-01 2.45e+07  -1.0 2.09e+06  -4.5 4.59e-01 3.83e-02h  4
   5  1.9579771e+01 1.23e-01 2.42e+07  -1.0 3.04e+06  -5.0 5.67e-01 1.08e-02h  5
   6  1.9409505e+01 1.23e-01 2.42e+07  -1.0 4.50e+08  -5.4 4.13e-03 1.96e-05f  6
   7  2.0286514e+01 1.21e-01 2.37e+07  -1.0 2.69e+06  -5.0 6.63e-01 1.66e-02h  5
   8  1.9865532e+01 1.20e-01 2.37e+07  -1.0 4.26e+06  -5.5 6.02e-01 1.01e-02f  5
   9  2.0034743e+01 1.19e-01 2.35e+07  -1.0 2.53e+06  -5.1 5.14e-01 6.17e-03h  7
iter    objective    inf_pr   inf_du lg(mu)  ||d||  lg(rg) alpha_du alpha_pr  ls
  10  2.0090429e+01 1.16e-01 2.23e+07  -1.0 2.42e+06  -4.6 3.51e-01 2.53e-02h  5
  11  1.3299516e+01 1.16e-01 1.51e+07  -1.0 1.73e+07  -5.1 6.49e-02 9.71e-03f  4
  12  1.4561506e+01 1.05e-01 1.55e+07  -1.0 1.17e+06  -4.7 5.36e-01 9.23e-02h  4
  13  5.1036123e+01 1.11e+01 1.41e+08  -1.0 2.32e+06  -5.2 5.13e-01 4.97e-01w  1
  14  3.9551113e+01 2.04e+00 7.78e+08  -1.0 5.21e+05  -2.9 2.58e-01 9.90e-01w  1
  15  3.1349890e+01 1.16e+00 6.81e+08  -1.0 1.65e+05  -2.5 6.66e-01 9.90e-01w  1
  16  2.7805856e+01 3.37e-01 1.06e+09  -1.0 1.83e+05  -3.0 6.46e-01 9.90e-01h  1
  17  2.4665744e+01 5.06e-02 8.37e+09  -1.0 1.22e+05  -3.5 9.58e-01 9.90e-01h  1
  18  2.4295814e+01 1.72e-03 1.26e+09  -1.0 2.41e+04  -3.9 9.90e-01 9.90e-01h  1
In iteration 18, 32 Slacks too small, adjusting variable bounds
  19  2.4289166e+01 6.08e-06 1.09e+10  -2.5 7.77e+02  -4.4 9.97e-01 9.97e-01h  1
iter    objective    inf_pr   inf_du lg(mu)  ||d||  lg(rg) alpha_du alpha_pr  ls
  20  2.4288925e+01 2.84e-11 5.47e-02  -2.5 3.68e+00  -4.9 1.00e+00 1.00e+00h  1
  21  2.4410207e+00 1.38e-01 5.57e+12  -9.0 6.65e+05    -  7.90e-01 1.00e+00f  1
  22  3.4805961e+00 1.49e-02 1.04e+12  -9.0 1.12e+05    -  8.14e-01 1.00e+00h  1
  23  3.2036671e+00 2.95e-04 4.74e+10  -9.0 2.04e+04    -  9.54e-01 1.00e+00h  1
  24  3.1857800e+00 1.70e-04 2.37e+08  -9.0 7.77e+03    -  9.95e-01 1.00e+00h  1
  25  3.1884065e+00 4.35e-07 2.32e-05  -9.0 2.57e+02    -  1.00e+00 1.00e+00h  1
  26  3.1884085e+00 6.46e-12 1.86e-09  -9.0 1.19e-01    -  1.00e+00 1.00e+00h  1

Number of Iterations....: 26

                                   (scaled)                 (unscaled)
Objective...............:   3.1884084535842581e+00    3.1884084535842581e+00
Dual infeasibility......:   1.8626451492309570e-09    1.8626451492309570e-09
Constraint violation....:   6.4623861817381112e-12    6.4623861817381112e-12
Complementarity.........:   9.0909094781567347e-10    9.0909094781567347e-10
Overall NLP error.......:   6.4623861817381112e-12    1.8626451492309570e-09


Number of objective function evaluations             = 80
Number of objective gradient evaluations             = 27
Number of equality constraint evaluations            = 80
Number of inequality constraint evaluations          = 0
Number of equality constraint Jacobian evaluations   = 27
Number of inequality constraint Jacobian evaluations = 0
Number of Lagrangian Hessian evaluations             = 26
Total CPU secs in IPOPT (w/o function evaluations)   =      0.044
Total CPU secs in NLP function evaluations           =      0.673

EXIT: Optimal Solution Found.
